Creating DSP environment
Reading SMPS files: /blues/gpfs/home/choy/Siplib/experiment/FULL_INSTANCE/AIRLIFT/LP2/AIRLIFT_1000_LP2
Coin0001I At line 1 NAME          AIRLIFT_1000_LP2
Coin0001I At line 2 ROWS
Coin0001I At line 12 COLUMNS
Coin0001I At line 35 RHS
Coin0001I At line 40 BOUNDS
Coin0001I At line 45 ENDATA
Coin0002I Problem AIRLIFT_1000_LP2 has 8 rows, 12 columns and 28 elements
Coin0001I At line 1 TIME          AIRLIFT_1000_LP2
Coin0001I At line 2 PERIODS       IMPLICIT
Coin0001I At line 5 ENDATA

Coin0001I At line 1 STOCH         AIRLIFT_1000_LP2
Coin0001I At line 2 SCENARIOS     DISCRETE
Coin0001I At line 3001 ENDATA
Read SMPS files: 0.002914 sec.
Reading parameter files: /blues/gpfs/home/choy/Siplib/experiment/solver_parameters/param_LP2_DSP_de.txt
CPX0000  CPXPARAM_Advance                                 0
CPX0000  CPXPARAM_TimeLimit                               3600
CPX0000  CPXPARAM_Threads                                 36
CPX0000  CPXPARAM_MIP_Limits_Nodes                        100000000
CPX0000  Found incumbent of value 871691.160590 after 0.00 sec. (0.52 ticks)
CPX0000  Tried aggregator 1 time.
CPX0000  MIP Presolve eliminated 0 rows and 2000 columns.
CPX0000  MIP Presolve modified 1 coefficients.
CPX0000  Reduced MIP has 6002 rows, 6004 columns, and 22004 nonzeros.
CPX0000  Reduced MIP has 0 binaries, 4 generals, 0 SOSs, and 0 indicators.
CPX0000  Presolve time = 0.01 sec. (19.64 ticks)
CPX0000  Tried aggregator 1 time.
CPX0000  Reduced MIP has 6002 rows, 6004 columns, and 22004 nonzeros.
CPX0000  Reduced MIP has 0 binaries, 4 generals, 0 SOSs, and 0 indicators.
CPX0000  Presolve time = 0.02 sec. (22.11 ticks)
CPX0000  MIP emphasis: balance optimality and feasibility.
CPX0000  MIP search method: dynamic search.
CPX0000  Parallel mode: deterministic, using up to 36 threads.
CPX0000  Root relaxation solution time = 0.16 sec. (159.06 ticks)
CPX0000
CPX0000          Nodes                                         Cuts/
CPX0000     Node  Left     Objective  IInf  Best Integer    Best Bound    ItCnt     Gap
CPX0000
CPX0000  *     0+    0                       871691.1606   -55361.1615           106.35%
CPX0000  *     0+    0                       370570.6990   -55361.1615           114.94%
CPX0000        0     0   282598.0916     2   370570.6990   282598.0916       12   23.74%
CPX0000  *     0+    0                       283983.4940   282598.0916             0.49%
CPX0000        0     0   282598.5077     2   283983.4940      Fract: 1       14    0.49%
CPX0000        0     0   282598.9246     2   283983.4940      Fract: 2       17    0.49%
CPX0000  *     0+    0                       283535.2754   282598.9246             0.33%
CPX0000  *     0+    0                       283142.6064   282598.9246             0.19%
CPX0000  *     0+    0                       282714.0684   282598.9986             0.04%
CPX0000
CPX0000  Gomory fractional cuts applied:  2
CPX0000
CPX0000  Root node processing (before b&c):
CPX0000    Real time             =    0.33 sec. (298.97 ticks)
CPX0000  Parallel b&c, 36 threads:
CPX0000    Real time             =    0.00 sec. (0.00 ticks)
CPX0000    Sync time (average)   =    0.00 sec.
CPX0000    Wait time (average)   =    0.00 sec.
CPX0000                            ------------
CPX0000  Total (root+branch&cut) =    0.33 sec. (298.97 ticks)
Status: 3000
Primal Bound: 282714
Dual Bound  : 282714
